43768
1 1 1 1 1 1 1 1 1 0 1 1 1 1 1 1 1 1 1 1 1 1 1 1 1 1 1 1 1 1
19 8 1 4 2 26 8 3 6 25 19 4 8 14 27 16 14 16 23 20 16 16 4 5 17 18 5 0 3 14 11 10 7 3 2 16 7 16 24 10 14 5 12 1 3 22 12 5 22 19 17 14 24 6 17 28 2 5 14 15 17 27 13 25 15 21 5 7 14 10 15 3 2 8 5 15 12 11 3 14 5 25 11 23 20 5 4 7 24 15 15 29 0 8 29 17 2 0 22 3 6 17 19 11 27 19 11 23 11 18 25 16 29 1 7 17 20 12 11 3 0 10 10 13 28 5 21 21 5 2 23 12 12 2 16 26 5 23 14 7 2 17 19 11 11 19 11 8 18 18 8 11 5 22 4 25 5 24 12 17 23 20 19 17 26 13 2 5 29 23 17 14 24 20 23 10 2 14 27 4 26 4 28 22 28 15 29 4 28 29 0 8 12 2 8 10 4 1 27 8